benchmarks_vrp/CMT2/fixed_c/CMT2_3.vrp
NAME: CMT2_3
TYPE: CVRP
COMMENT: 835.26 - Cluster Nr.3
DIMENSION: 4
CAPACITY: 140
EDGE_WEIGHT_TYPE: EUC_2D
NODE_COORD_TYPE: TWOD_COORDS
NODE_COORD_SECTION: 
3 26 13
4 15 5
1 40 40
2 36 6
DEPOT_SECTION: 
1
-1
DEMAND_SECTION: 
1 0
4 28
3 12
2 15
EOF
