benchmarks_vrp/CMT2/fixed_c/CMT2_3.tour
NAME: CMT2_3 solution
TYPE: TOUR
TOUR_SECTION:
1 2 4 3 -1
-1
EOF